NAME          COPTPROB
OBJSENSE
  MIN
ROWS
 N  __OBJ___
 L  C73     
 L  C124    
 L  C151    
 L  C170    
 L  C180    
COLUMNS
    MARKER    'MARKER'                 'INTORG'
    x74       __OBJ___  306
    x74       C73       -1
    x74       C124      -1
    x337      __OBJ___  37
    x337      C151      -1
    x337      C170      -1
    x340      __OBJ___  84
    x340      C73       -1
    x340      C170      -1
    x522      __OBJ___  371
    x522      C124      -1
    x522      C180      -1
    x1139     __OBJ___  122
    x1139     C151      -1
    x1139     C180      -1
    MARKER    'MARKER'                 'INTEND'
RHS
    RHS       __OBJ___  -8442
    RHS       C73       -1
    RHS       C124      -1
    RHS       C151      -1
    RHS       C170      -1
    RHS       C180      -1
BOUNDS
 UP BOUND     x74       1
 UP BOUND     x337      1
 UP BOUND     x340      1
 UP BOUND     x522      1
 UP BOUND     x1139     1
ENDATA
